1979-03-18
1979-03-19
1979-06-18
1979-06-19
1979-07-23
1979-09-05
1979-09-06
1979-09-07
1982-04-25
1985-11-13
1985-11-14
1985-11-15
1985-11-16
1985-11-17
1985-11-18
1985-11-19
1985-11-21
1985-11-22
1988-04-19
1988-04-20
1988-04-21
1988-04-22
1988-04-23
1988-04-24
1988-04-25
1988-04-26
1988-04-27
1988-05-02
1991-08-23
1991-08-24
1991-08-25
1991-08-26
1993-06-22
1993-06-23
1993-06-24
1993-07-18
1993-07-19
1993-07-20
1993-07-21
1993-07-22
1993-07-23
1993-07-24
1993-07-25
1993-07-27
1995-04-22
1995-04-23
1995-04-24
1995-04-25
1995-12-13
1995-12-14
1995-12-15
1995-12-16
1995-12-17
1998-02-01
1998-02-02
1998-02-03
1998-02-04
1998-02-05
1998-02-06
1998-02-07
1998-02-08
1998-02-09
1998-02-10
1998-02-11
1998-02-12
1998-02-13
1998-06-07
1998-06-08
1998-06-09
1998-06-10
1998-12-31
1999-01-02
1999-11-13
2001-04-23
2001-04-24
2001-04-25
2001-04-26
2001-04-28
2001-04-29
2001-04-30
2001-05-01
2001-05-02
2001-05-03
2001-08-14
2001-08-15
2001-08-16
2001-08-17
2001-08-18
2001-08-19
2001-08-20
2001-08-21
2001-08-22
2001-08-23
2001-08-24
2001-08-25
2001-08-26
2001-09-23
2001-12-11
2008-06-08
2008-06-09
2008-06-10
2008-06-11
2008-09-02
2008-09-11
2008-09-12
2008-09-13
2008-09-14
2008-09-15
2008-09-16
2008-09-17
2008-09-18
2008-09-19
2008-09-20
2008-09-21
2008-09-22
2010-08-28
2010-08-29
2010-08-30
2010-08-31
2010-09-01
2010-09-02
2010-09-03
2010-10-18
2010-10-19
2010-10-20
2010-10-21
2010-10-22
2010-10-23
2010-10-27
2010-10-28
2010-11-02
2010-11-03
2010-11-04
2010-11-05
2010-11-06
2010-11-07
2010-11-08
2010-11-09
2010-11-10
2010-11-11
2010-11-12
2010-11-13
2010-12-10
2011-02-21
2011-02-22
2011-02-23
2011-02-24
2011-02-25
2011-02-26
2011-02-27
2011-02-28
2011-03-01
2011-03-02
2011-03-03
2011-03-04
2012-04-11
2012-04-12
2012-04-13
2012-04-26
2012-04-27
2012-04-28
2013-03-23
2013-03-24
2013-03-25
2013-03-26
2014-03-20
2014-03-21
2014-03-22
